p cnf 72 262
-1 2 -3 0
1 -2 -3 0
-1 -2 3 0
1 2 3 0
3 -4 -5 0
-3 4 -5 0
3 4 5 0
-3 -4 5 0
-6 7 -8 0
6 -7 -8 0
-6 -7 8 0
6 7 8 0
9 4 0
9 8 0
-4 -8 -9 0
10 -9 0
10 4 0
9 -4 -10 0
-10 11 -12 0
10 -11 -12 0
-10 -11 12 0
10 11 12 0
13 -5 0
13 12 0
5 -12 -13 0
-14 -11 -15 0
14 11 -15 0
-14 11 15 0
14 -11 15 0
13 15 -16 0
-13 -15 -16 0
13 -15 16 0
-13 15 16 0
18 2 0
18 17 0
-2 -17 -18 0
18 -14 -19 0
-18 14 -19 0
18 14 19 0
-18 -14 19 0
20 4 0
20 19 0
-4 -19 -20 0
-21 -8 0
-21 8 0
22 -2 0
22 -21 0
2 21 -22 0
-23 -20 0
-23 22 0
20 -22 23 0
-25 -3 0
-25 7 0
3 -7 25 0
-26 24 0
-26 -25 0
-24 25 26 0
-27 23 0
-27 26 0
-23 -26 27 0
16 -27 -28 0
-16 27 -28 0
16 27 28 0
-16 -27 28 0
29 21 0
29 -4 0
-21 4 -29 0
-30 -14 0
-30 29 0
14 -29 30 0
2 14 -31 0
-2 -14 -31 0
2 -14 31 0
-2 14 31 0
30 31 -32 0
-30 -31 -32 0
30 -31 32 0
-30 31 32 0
-33 -25 0
-33 8 0
25 -8 33 0
-35 3 0
-35 -34 0
-3 34 35 0
36 3 0
36 19 0
-3 -19 -36 0
37 35 0
37 -36 0
-35 36 -37 0
-38 33 0
-38 37 0
-33 -37 38 0
-39 -21 0
-39 -6 0
21 6 39 0
-40 -10 0
-40 39 0
10 -39 40 0
41 40 0
41 -34 0
-40 34 -41 0
42 -14 0
42 21 0
14 -21 -42 0
-43 7 0
-43 42 0
-7 -42 43 0
-44 6 0
-44 -43 0
-6 43 44 0
45 -42 0
45 -44 0
42 44 -45 0
-46 -41 0
-46 45 0
41 -45 46 0
47 21 0
47 17 0
-21 -17 -47 0
-48 46 0
-48 -47 0
-46 47 48 0
49 38 0
49 48 0
-38 -48 -49 0
50 2 0
50 17 0
-2 -17 -50 0
50 9 -51 0
-50 -9 -51 0
50 -9 51 0
-50 9 51 0
-52 6 0
-52 5 0
-6 -5 52 0
53 21 0
53 -52 0
-21 52 -53 0
54 -51 0
54 53 0
51 -53 -54 0
10 50 -55 0
-10 -50 -55 0
10 -50 55 0
-10 50 55 0
56 12 0
56 -12 0
-57 -55 0
-57 56 0
55 -56 57 0
58 54 0
58 -57 0
-54 57 -58 0
-59 -49 0
-59 -58 0
49 58 59 0
60 25 0
60 -21 0
-25 21 -60 0
-61 59 0
-61 60 0
-59 -60 61 0
32 61 -62 0
-32 -61 -62 0
32 -61 62 0
-32 61 62 0
63 -28 0
63 -62 0
28 62 -63 0
64 14 0
64 -6 0
-14 6 -64 0
65 63 0
65 -64 0
-63 64 -65 0
11 -9 -66 0
-11 9 -66 0
11 9 66 0
-11 -9 66 0
-67 -25 0
-67 -66 0
25 66 67 0
68 -67 0
68 4 0
67 -4 -68 0
-1 -34 -69 0
1 34 -69 0
-1 34 69 0
1 -34 69 0
-5 -69 -70 0
5 69 -70 0
-5 69 70 0
5 -69 70 0
-71 68 0
-71 -70 0
-68 70 71 0
-65 71 -72 0
65 -71 -72 0
-65 -71 72 0
65 71 72 0
-56 16 64 0
-44 51 -53 0
-18 13 -8 -24 26 0
8 66 19 62 0
28 -15 -61 -16 31 0
-46 21 -44 37 49 -42 0
-70 39 0
-54 50 -41 -14 0
67 39 31 0
49 69 0
70 -24 28 -8 44 -60 0
53 -64 0
35 10 -61 66 0
-47 -51 0
16 -63 2 -38 0
-69 22 0
-64 -59 -11 -42 43 0
-45 -66 -3 -40 62 0
-12 -7 0
-26 27 0
66 -46 -22 0
-47 24 58 14 0
-25 14 -61 0
-14 69 20 0
40 43 -68 46 0
-2 -13 12 0
14 -3 -58 42 54 -69 0
15 -67 13 -64 0
10 48 -60 35 -53 -40 0
-11 54 36 0
-3 -62 35 -55 -56 72 0
9 38 0
47 -61 44 54 -52 0
-58 -69 -1 62 0
66 16 0
-68 35 4 0
-3 -55 26 -45 0
-51 -28 -26 -47 41 13 0
62 22 64 -61 15 0
17 50 65 -24 55 0
38 34 -48 58 59 0
2 -15 67 30 0
30 -5 1 -71 -32 0
32 24 46 -63 0
21 7 -11 0
35 67 -34 0
27 45 -68 57 30 0
-43 72 67 9 -13 0
-29 -30 -35 -7 -46 -9 0
-70 -18 0
21 -15 -60 -19 -7 0
3 31 21 0
53 -9 22 0
67 -9 -3 -61 0
-9 -6 -39 0
-62 71 -3 -6 64 -11 0
52 30 -33 41 24 -56 0
-43 12 0
55 59 12 31 0
41 54 0
72 0
